(set-logic QF_UF)
(declare-fun A0 () Bool)
(declare-fun A1 () Bool)
(declare-fun A2 () Bool)
(declare-fun A3 () Bool)
(declare-fun A4 () Bool)
(declare-fun A5 () Bool)
(declare-fun A6 () Bool)
(declare-fun A7 () Bool)
(declare-fun A8 () Bool)
(declare-fun A9 () Bool)
(declare-fun A10 () Bool)
(declare-fun A11 () Bool)
(declare-fun A12 () Bool)
(declare-fun A13 () Bool)
(declare-fun A14 () Bool)
(declare-fun A15 () Bool)
(declare-fun A18 () Bool)
(declare-fun A20 () Bool)
(declare-fun A21 () Bool)
(declare-fun A22 () Bool)
(declare-fun A23 () Bool)
(declare-fun A24 () Bool)
(assert (let ((.def_0 (not A18))) (let ((.def_1 (not A7))) (let ((.def_2 (and .def_1 .def_0))) (let ((.def_3 (not .def_2))) (let ((.def_4 (not A23))) (let ((.def_5 (or .def_4 A8))) (let ((.def_6 (not .def_5))) (let ((.def_7 (or .def_6 .def_3))) (let ((.def_8 (not A5))) (let ((.def_9 (and .def_8 A20))) (let ((.def_10 (not A13))) (let ((.def_11 (or A8 .def_10))) (let ((.def_12 (and .def_11 .def_9))) (let ((.def_13 (not .def_12))) (let ((.def_14 (or .def_13 .def_7))) (let ((.def_15 (not A6))) (let ((.def_16 (and .def_0 .def_15))) (let ((.def_17 (not A24))) (let ((.def_18 (and .def_17 A18))) (let ((.def_19 (not .def_18))) (let ((.def_20 (= .def_19 .def_16))) (let ((.def_21 (not .def_20))) (let ((.def_22 (not A14))) (let ((.def_23 (not A10))) (let ((.def_24 (and .def_23 .def_22))) (let ((.def_25 (and A3 A22))) (let ((.def_26 (not .def_25))) (let ((.def_27 (= .def_26 .def_24))) (let ((.def_28 (or .def_27 .def_21))) (let ((.def_29 (or .def_28 .def_14))) (let ((.def_30 (not A22))) (let ((.def_31 (or A6 .def_30))) (let ((.def_32 (not .def_31))) (let ((.def_33 (not A12))) (let ((.def_34 (not A8))) (let ((.def_35 (and .def_34 .def_33))) (let ((.def_36 (or .def_35 .def_32))) (let ((.def_37 (not .def_36))) (let ((.def_38 (not A21))) (let ((.def_39 (and .def_38 A22))) (let ((.def_40 (and A4 .def_17))) (let ((.def_41 (not .def_40))) (let ((.def_42 (and .def_41 .def_39))) (let ((.def_43 (or .def_42 .def_37))) (let ((.def_44 (or .def_23 A23))) (let ((.def_45 (not .def_44))) (let ((.def_46 (and A22 .def_4))) (let ((.def_47 (or .def_46 .def_45))) (let ((.def_48 (not .def_47))) (let ((.def_49 (or A21 A21))) (let ((.def_50 (and A23 A22))) (let ((.def_51 (not .def_50))) (let ((.def_52 (or .def_51 .def_49))) (let ((.def_53 (or .def_52 .def_48))) (let ((.def_54 (or .def_53 .def_43))) (let ((.def_55 (or .def_54 .def_29))) (let ((.def_56 (not .def_55))) (let ((.def_57 (or A10 .def_0))) (let ((.def_58 (= .def_33 A5))) (let ((.def_59 (not .def_58))) (let ((.def_60 (and .def_59 .def_57))) (let ((.def_61 (not A2))) (let ((.def_62 (not A1))) (let ((.def_63 (and .def_62 .def_61))) (let ((.def_64 (not A11))) (let ((.def_65 (or .def_64 .def_17))) (let ((.def_66 (or .def_65 .def_63))) (let ((.def_67 (not .def_66))) (let ((.def_68 (and .def_67 .def_60))) (let ((.def_69 (not .def_68))) (let ((.def_70 (and .def_8 .def_38))) (let ((.def_71 (not .def_70))) (let ((.def_72 (and .def_17 A21))) (let ((.def_73 (not .def_72))) (let ((.def_74 (or .def_73 .def_71))) (let ((.def_75 (or .def_61 .def_15))) (let ((.def_76 (not .def_75))) (let ((.def_77 (or A9 A23))) (let ((.def_78 (and .def_77 .def_76))) (let ((.def_79 (or .def_78 .def_74))) (let ((.def_80 (and .def_79 .def_69))) (let ((.def_81 (or .def_10 A14))) (let ((.def_82 (not .def_81))) (let ((.def_83 (or A8 A12))) (let ((.def_84 (not .def_83))) (let ((.def_85 (or .def_84 .def_82))) (let ((.def_86 (or .def_0 .def_23))) (let ((.def_87 (not .def_86))) (let ((.def_88 (not A0))) (let ((.def_89 (or A3 .def_88))) (let ((.def_90 (not .def_89))) (let ((.def_91 (or .def_90 .def_87))) (let ((.def_92 (not .def_91))) (let ((.def_93 (or .def_92 .def_85))) (let ((.def_94 (= A7 A3))) (let ((.def_95 (not A15))) (let ((.def_96 (and A2 .def_95))) (let ((.def_97 (or .def_96 .def_94))) (let ((.def_98 (and A7 A12))) (let ((.def_99 (and A11 A2))) (let ((.def_100 (not .def_99))) (let ((.def_101 (and .def_100 .def_98))) (let ((.def_102 (or .def_101 .def_97))) (let ((.def_103 (and .def_102 .def_93))) (let ((.def_104 (and .def_103 .def_80))) (let ((.def_105 (not .def_104))) (let ((.def_106 (and .def_105 .def_56))) .def_106))))))))))))))))))))))))))))))))))))))))))))))))))))))))))))))))))))))))))))))))))))))))))))))))))))))))))))
(check-sat)
